c 
c G(k,n,p) graph
c graph gen seed     : 2267
c number of vertices : 60
c max number of edges: 900
c number of classes  : 2
c edge density       : 0.200000
c edge probability   : 0.400000
c data structure     : sparse
c
c           Graph Stats
c number of vertices  : 60
c nonisolated vertices: 60
c number of edges     : 342
c edge density        : 0.193220
c max degree          : 19
c avg degree          : 11.40
c min degree          : 3
p col 60 342
e 1 58
e 1 54
e 1 51
e 1 49
e 1 48
e 1 44
e 1 42
e 1 39
e 1 37
e 1 36
e 1 34
e 1 24
e 1 23
e 1 22
e 1 15
e 1 13
e 1 12
e 1 9
e 1 2
e 2 59
e 2 41
e 2 33
e 2 29
e 2 28
e 2 27
e 2 20
e 2 17
e 2 10
e 2 7
e 2 5
e 3 60
e 3 51
e 3 49
e 3 48
e 3 47
e 3 44
e 3 42
e 3 40
e 3 39
e 3 34
e 3 26
e 3 24
e 3 22
e 3 13
e 3 11
e 3 9
e 3 4
e 4 59
e 4 41
e 4 35
e 4 32
e 4 27
e 4 16
e 4 14
e 5 57
e 5 54
e 5 53
e 5 52
e 5 49
e 5 47
e 5 44
e 5 43
e 5 39
e 5 26
e 5 23
e 5 18
e 6 60
e 6 58
e 6 54
e 6 51
e 6 50
e 6 49
e 6 48
e 6 47
e 6 44
e 6 43
e 6 39
e 6 34
e 6 30
e 6 18
e 6 12
e 7 58
e 7 56
e 7 53
e 7 52
e 7 50
e 7 48
e 7 44
e 7 39
e 7 37
e 7 23
e 7 22
e 7 18
e 7 15
e 7 12
e 8 60
e 8 57
e 8 52
e 8 50
e 8 49
e 8 48
e 8 47
e 8 45
e 8 42
e 8 39
e 8 34
e 8 19
e 8 12
e 8 9
e 9 38
e 9 33
e 9 32
e 9 29
e 9 27
e 9 25
e 9 20
e 9 14
e 9 10
e 10 60
e 10 57
e 10 53
e 10 48
e 10 47
e 10 44
e 10 42
e 10 39
e 10 34
e 10 22
e 10 15
e 10 12
e 10 11
e 11 46
e 11 35
e 11 33
e 11 32
e 11 28
e 11 27
e 11 21
e 11 16
e 12 59
e 12 38
e 12 35
e 12 33
e 12 29
e 13 33
e 13 32
e 13 29
e 13 16
e 14 56
e 14 54
e 14 50
e 14 49
e 14 47
e 14 45
e 14 42
e 14 37
e 14 30
e 14 26
e 14 24
e 14 23
e 14 18
e 15 38
e 15 20
e 15 17
e 15 16
e 16 57
e 16 55
e 16 54
e 16 52
e 16 51
e 16 45
e 16 42
e 16 40
e 16 36
e 16 22
e 16 18
e 17 57
e 17 54
e 17 52
e 17 50
e 17 49
e 17 48
e 17 44
e 17 43
e 17 34
e 18 59
e 18 38
e 18 32
e 18 27
e 19 59
e 19 46
e 19 41
e 19 33
e 19 32
e 20 60
e 20 57
e 20 56
e 20 55
e 20 54
e 20 52
e 20 51
e 20 50
e 20 49
e 20 45
e 20 30
e 20 26
e 20 24
e 21 58
e 21 55
e 21 54
e 21 51
e 21 48
e 21 45
e 21 43
e 21 40
e 21 39
e 21 36
e 21 30
e 21 24
e 21 23
e 22 35
e 22 29
e 22 28
e 23 35
e 24 41
e 24 35
e 24 32
e 24 27
e 25 60
e 25 56
e 25 55
e 25 53
e 25 50
e 25 48
e 25 43
e 25 40
e 25 39
e 25 31
e 25 26
e 26 41
e 26 32
e 26 29
e 27 60
e 27 56
e 27 51
e 27 47
e 27 44
e 27 43
e 27 36
e 27 34
e 27 30
e 28 57
e 28 53
e 28 49
e 28 48
e 28 45
e 28 43
e 28 42
e 28 40
e 28 39
e 28 30
e 29 60
e 29 49
e 29 47
e 29 42
e 29 40
e 29 39
e 29 37
e 29 30
e 31 59
e 31 38
e 32 53
e 32 51
e 32 49
e 32 40
e 32 39
e 32 37
e 32 36
e 32 34
e 33 58
e 33 56
e 33 53
e 33 51
e 33 49
e 33 48
e 33 45
e 33 44
e 33 43
e 33 36
e 35 60
e 35 55
e 35 50
e 35 45
e 35 42
e 35 39
e 35 37
e 35 36
e 36 59
e 37 41
e 38 58
e 38 54
e 38 53
e 38 51
e 38 49
e 38 45
e 38 44
e 38 43
e 38 40
e 38 39
e 39 59
e 40 46
e 40 41
e 41 60
e 41 58
e 41 54
e 41 53
e 41 52
e 41 51
e 41 50
e 41 47
e 41 45
e 41 44
e 42 46
e 43 59
e 44 46
e 46 58
e 46 56
e 46 55
e 46 53
e 46 52
e 46 51
e 46 50
e 46 49
e 46 48
e 49 59
e 51 59
e 52 59
e 55 59
e 56 59
e 57 59
e 58 59
e 59 60
